c This is UnifRandomKSATGenerator
c uniform random 3-SAT generated instance with: 
c clause length: 3 
c number variables: 20 
c number clauses: 85 
c clause to variable ratio: 4.27 
c random number generator name: SHA1PRNG 
c random number generator provider: SUN 
c random number generator seed: 3945959830872272414 
p cnf 20 85
8 -14 -7 0
-10 5 -7 0
-9 -5 7 0
-1 -3 7 0
17 4 13 0
17 10 18 0
-3 -4 12 0
16 18 -15 0
16 -18 10 0
-10 -18 -20 0
-5 -15 -8 0
-10 -12 -7 0
18 19 -6 0
17 -12 6 0
-18 -6 15 0
17 -18 -14 0
16 19 13 0
-18 3 5 0
20 15 -16 0
5 -7 -15 0
8 1 -3 0
-3 -13 15 0
-1 18 -12 0
-3 20 -13 0
18 -7 -15 0
-9 19 -16 0
-19 3 -6 0
2 -4 -14 0
-1 -12 -8 0
-13 6 15 0
11 4 -6 0
1 10 15 0
19 -5 6 0
9 10 -20 0
9 -20 14 0
8 -13 7 0
-1 3 -13 0
1 10 -16 0
-9 -1 -13 0
17 3 -15 0
-9 -13 6 0
12 -7 -16 0
-3 11 20 0
19 -7 -16 0
17 -11 -5 0
-1 20 7 0
10 11 -20 0
-17 -15 -16 0
8 4 -15 0
4 5 -7 0
8 -10 -14 0
-2 13 6 0
2 20 14 0
10 -11 5 0
-18 19 7 0
8 1 -13 0
-3 -19 14 0
-3 13 -15 0
-1 -10 11 0
-17 -7 14 0
-9 1 14 0
-17 -15 7 0
-3 18 -15 0
-11 -19 14 0
2 13 7 0
-17 20 -7 0
-1 -2 11 0
-5 14 -8 0
18 11 4 0
18 -13 -7 0
16 -20 12 0
17 14 15 0
-17 2 13 0
9 -7 6 0
10 6 -7 0
17 2 -13 0
1 19 14 0
-9 10 -6 0
10 3 15 0
-17 12 -14 0
-17 10 3 0
9 -10 14 0
1 -10 7 0
-9 -2 -11 0
-9 10 3 0
